NAME: random-4-5530
TYPE: TSP
COMMENT: size=4 seed=5530
DIMENSION: 10
EDGE_WEIGHT_TYPE: EUC_2D
NODE_COORD_SECTION
+0 710 601
-0 710 601
+1 838 290
-1 100 502
+2 58 74
-2 560 266
+3 795 683
-3 245 527
+4 293 196
-4 560 617
PRECEDENCE_SECTION
+0 -0
+1 -1
+2 -2
+3 -3
+4 -4
EOF
